; benchmark generated from python API
(set-info :status unknown)
(declare-fun x_9_4 () Int)
(declare-fun x_9_2 () Int)
(declare-fun x_9_1 () Int)
(declare-fun x_8_8 () Int)
(declare-fun x_8_7 () Int)
(declare-fun x_8_4 () Int)
(declare-fun x_8_1 () Int)
(declare-fun x_7_8 () Int)
(declare-fun x_6_9 () Int)
(declare-fun x_6_4 () Int)
(declare-fun x_5_7 () Int)
(declare-fun x_5_3 () Int)
(declare-fun x_4_6 () Int)
(declare-fun x_4_1 () Int)
(declare-fun x_3_2 () Int)
(declare-fun x_2_9 () Int)
(declare-fun x_2_6 () Int)
(declare-fun x_2_3 () Int)
(declare-fun x_2_2 () Int)
(declare-fun x_1_9 () Int)
(declare-fun x_1_8 () Int)
(declare-fun x_1_6 () Int)
(declare-fun x_1_1 () Int)
(declare-fun x_1_2 () Int)
(declare-fun x_1_3 () Int)
(declare-fun x_1_4 () Int)
(declare-fun x_1_5 () Int)
(declare-fun x_1_7 () Int)
(declare-fun x_2_1 () Int)
(declare-fun x_2_4 () Int)
(declare-fun x_2_5 () Int)
(declare-fun x_2_7 () Int)
(declare-fun x_2_8 () Int)
(declare-fun x_3_1 () Int)
(declare-fun x_3_3 () Int)
(declare-fun x_3_4 () Int)
(declare-fun x_3_5 () Int)
(declare-fun x_3_6 () Int)
(declare-fun x_3_7 () Int)
(declare-fun x_3_8 () Int)
(declare-fun x_3_9 () Int)
(declare-fun x_4_2 () Int)
(declare-fun x_4_3 () Int)
(declare-fun x_4_4 () Int)
(declare-fun x_4_5 () Int)
(declare-fun x_4_7 () Int)
(declare-fun x_4_8 () Int)
(declare-fun x_4_9 () Int)
(declare-fun x_5_1 () Int)
(declare-fun x_5_2 () Int)
(declare-fun x_5_4 () Int)
(declare-fun x_5_5 () Int)
(declare-fun x_5_6 () Int)
(declare-fun x_5_8 () Int)
(declare-fun x_5_9 () Int)
(declare-fun x_6_1 () Int)
(declare-fun x_6_2 () Int)
(declare-fun x_6_3 () Int)
(declare-fun x_6_5 () Int)
(declare-fun x_6_6 () Int)
(declare-fun x_6_7 () Int)
(declare-fun x_6_8 () Int)
(declare-fun x_7_1 () Int)
(declare-fun x_7_2 () Int)
(declare-fun x_7_3 () Int)
(declare-fun x_7_4 () Int)
(declare-fun x_7_5 () Int)
(declare-fun x_7_6 () Int)
(declare-fun x_7_7 () Int)
(declare-fun x_7_9 () Int)
(declare-fun x_8_2 () Int)
(declare-fun x_8_3 () Int)
(declare-fun x_8_5 () Int)
(declare-fun x_8_6 () Int)
(declare-fun x_8_9 () Int)
(declare-fun x_9_3 () Int)
(declare-fun x_9_5 () Int)
(declare-fun x_9_6 () Int)
(declare-fun x_9_7 () Int)
(declare-fun x_9_8 () Int)
(declare-fun x_9_9 () Int)
(assert
 (and (= x_1_6 3) (= x_1_8 1) (= x_1_9 7) (= x_2_2 1) (= x_2_3 5) (= x_2_6 9) (= x_2_9 8) (= x_3_2 6) (= x_4_1 1) (= x_4_6 7) (= x_5_3 9) (= x_5_7 2) (= x_6_4 5) (= x_6_9 4) (= x_7_8 2) (= x_8_1 5) (= x_8_4 6) (= x_8_7 3) (= x_8_8 4) (= x_9_1 3) (= x_9_2 4) (= x_9_4 2)))
(assert
 (or (= x_1_1 8) (= x_1_1 9) (= x_1_1 2) (= x_1_1 4)))
(assert
 (or (= x_1_2 8) (= x_1_2 9) (= x_1_2 2)))
(assert
 (or (= x_1_3 8) (= x_1_3 2) (= x_1_3 4)))
(assert
 (or (= x_1_4 8) (= x_1_4 4)))
(assert
 (or (= x_1_5 2) (= x_1_5 4) (= x_1_5 5) (= x_1_5 6) (= x_1_5 8)))
(assert
 (or (= x_1_7 9) (= x_1_7 4) (= x_1_7 5) (= x_1_7 6)))
(assert
 (or (= x_2_1 2) (= x_2_1 4) (= x_2_1 7)))
(assert
 (or (= x_2_4 4) (= x_2_4 7)))
(assert
 (or (= x_2_5 2) (= x_2_5 4) (= x_2_5 6) (= x_2_5 7)))
(assert
 (or (= x_2_7 4) (= x_2_7 6)))
(assert
 (or (= x_2_8 3) (= x_2_8 6)))
(assert
 (or (= x_3_1 2) (= x_3_1 4) (= x_3_1 7) (= x_3_1 8) (= x_3_1 9)))
(assert
 (or (= x_3_3 2) (= x_3_3 3) (= x_3_3 4) (= x_3_3 7) (= x_3_3 8) (= x_3_3 9)))
(assert
 (or (= x_3_4 8) (= x_3_4 1) (= x_3_4 4) (= x_3_4 7)))
(assert
 (or (= x_3_5 1) (= x_3_5 2) (= x_3_5 4) (= x_3_5 5) (= x_3_5 7) (= x_3_5 8)))
(assert
 (or (= x_3_6 1) (= x_3_6 2) (= x_3_6 4) (= x_3_6 5) (= x_3_6 8)))
(assert
 (or (= x_3_7 9) (= x_3_7 4) (= x_3_7 5)))
(assert
 (or (= x_3_8 9) (= x_3_8 3) (= x_3_8 5)))
(assert
 (or (= x_3_9 9) (= x_3_9 2) (= x_3_9 3) (= x_3_9 5)))
(assert
 (or (= x_4_2 8) (= x_4_2 2) (= x_4_2 3) (= x_4_2 5)))
(assert
 (or (= x_4_3 2) (= x_4_3 3) (= x_4_3 4) (= x_4_3 6) (= x_4_3 8)))
(assert
 (or (= x_4_4 2) (= x_4_4 3) (= x_4_4 4) (= x_4_4 6) (= x_4_4 8) (= x_4_4 9)))
(assert
 (or (= x_4_5 2) (= x_4_5 3) (= x_4_5 4) (= x_4_5 6) (= x_4_5 8) (= x_4_5 9)))
(assert
 (or (= x_4_7 8) (= x_4_7 9) (= x_4_7 5) (= x_4_7 6)))
(assert
 (or (= x_4_8 3) (= x_4_8 5) (= x_4_8 6) (= x_4_8 8) (= x_4_8 9)))
(assert
 (or (= x_4_9 9) (= x_4_9 3) (= x_4_9 5) (= x_4_9 6)))
(assert
 (or (= x_5_1 8) (= x_5_1 4) (= x_5_1 6) (= x_5_1 7)))
(assert
 (or (= x_5_2 8) (= x_5_2 3) (= x_5_2 5) (= x_5_2 7)))
(assert
 (or (= x_5_4 8) (= x_5_4 1) (= x_5_4 3) (= x_5_4 4)))
(assert
 (or (= x_5_5 1) (= x_5_5 3) (= x_5_5 4) (= x_5_5 6) (= x_5_5 8)))
(assert
 (or (= x_5_6 8) (= x_5_6 1) (= x_5_6 4) (= x_5_6 6)))
(assert
 (or (= x_5_8 3) (= x_5_8 5) (= x_5_8 6) (= x_5_8 7) (= x_5_8 8)))
(assert
 (or (= x_5_9 1) (= x_5_9 3) (= x_5_9 5) (= x_5_9 6)))
(assert
 (or (= x_6_1 8) (= x_6_1 2) (= x_6_1 6) (= x_6_1 7)))
(assert
 (or (= x_6_2 8) (= x_6_2 2) (= x_6_2 3) (= x_6_2 7)))
(assert
 (or (= x_6_3 2) (= x_6_3 3) (= x_6_3 6) (= x_6_3 7) (= x_6_3 8)))
(assert
 (or (= x_6_5 1) (= x_6_5 2) (= x_6_5 3) (= x_6_5 6) (= x_6_5 8) (= x_6_5 9)))
(assert
 (or (= x_6_6 1) (= x_6_6 2) (= x_6_6 3) (= x_6_6 6) (= x_6_6 8) (= x_6_6 9)))
(assert
 (or (= x_6_7 1) (= x_6_7 6) (= x_6_7 7) (= x_6_7 8) (= x_6_7 9)))
(assert
 (or (= x_6_8 3) (= x_6_8 6) (= x_6_8 7) (= x_6_8 8) (= x_6_8 9)))
(assert
 (or (= x_7_1 8) (= x_7_1 9) (= x_7_1 6) (= x_7_1 7)))
(assert
 (or (= x_7_2 8) (= x_7_2 9) (= x_7_2 7)))
(assert
 (or (= x_7_3 8) (= x_7_3 1) (= x_7_3 6) (= x_7_3 7)))
(assert
 (or (= x_7_4 1) (= x_7_4 3) (= x_7_4 4) (= x_7_4 7) (= x_7_4 8) (= x_7_4 9)))
(assert
 (or (= x_7_5 1) (= x_7_5 3) (= x_7_5 4) (= x_7_5 5) (= x_7_5 7) (= x_7_5 8) (= x_7_5 9)))
(assert
 (or (= x_7_6 8) (= x_7_6 1) (= x_7_6 4) (= x_7_6 5)))
(assert
 (or (= x_7_7 1) (= x_7_7 5) (= x_7_7 6) (= x_7_7 7) (= x_7_7 8) (= x_7_7 9)))
(assert
 (or (= x_7_9 1) (= x_7_9 5) (= x_7_9 6) (= x_7_9 9)))
(assert
 (or (= x_8_2 8) (= x_8_2 9) (= x_8_2 2) (= x_8_2 7)))
(assert
 (or (= x_8_3 8) (= x_8_3 1) (= x_8_3 2) (= x_8_3 7)))
(assert
 (or (= x_8_5 8) (= x_8_5 1) (= x_8_5 9) (= x_8_5 7)))
(assert
 (or (= x_8_6 8) (= x_8_6 1)))
(assert
 (or (= x_8_9 1) (= x_8_9 9)))
(assert
 (or (= x_9_3 8) (= x_9_3 1) (= x_9_3 6) (= x_9_3 7)))
(assert
 (or (= x_9_5 1) (= x_9_5 5) (= x_9_5 7) (= x_9_5 8) (= x_9_5 9)))
(assert
 (or (= x_9_6 8) (= x_9_6 1) (= x_9_6 5)))
(assert
 (or (= x_9_7 1) (= x_9_7 5) (= x_9_7 6) (= x_9_7 7) (= x_9_7 8) (= x_9_7 9)))
(assert
 (or (= x_9_8 5) (= x_9_8 6) (= x_9_8 7) (= x_9_8 8) (= x_9_8 9)))
(assert
 (or (= x_9_9 1) (= x_9_9 5) (= x_9_9 6) (= x_9_9 7) (= x_9_9 8) (= x_9_9 9)))
(assert
 (and (distinct x_1_1 x_1_2 x_1_3 x_1_4 x_1_5 x_1_6 x_1_7 x_1_8 x_1_9) true))
(assert
 (and (distinct x_2_1 x_2_2 x_2_3 x_2_4 x_2_5 x_2_6 x_2_7 x_2_8 x_2_9) true))
(assert
 (and (distinct x_3_1 x_3_2 x_3_3 x_3_4 x_3_5 x_3_6 x_3_7 x_3_8 x_3_9) true))
(assert
 (and (distinct x_4_1 x_4_2 x_4_3 x_4_4 x_4_5 x_4_6 x_4_7 x_4_8 x_4_9) true))
(assert
 (and (distinct x_5_1 x_5_2 x_5_3 x_5_4 x_5_5 x_5_6 x_5_7 x_5_8 x_5_9) true))
(assert
 (and (distinct x_6_1 x_6_2 x_6_3 x_6_4 x_6_5 x_6_6 x_6_7 x_6_8 x_6_9) true))
(assert
 (and (distinct x_7_1 x_7_2 x_7_3 x_7_4 x_7_5 x_7_6 x_7_7 x_7_8 x_7_9) true))
(assert
 (and (distinct x_8_1 x_8_2 x_8_3 x_8_4 x_8_5 x_8_6 x_8_7 x_8_8 x_8_9) true))
(assert
 (and (distinct x_9_1 x_9_2 x_9_3 x_9_4 x_9_5 x_9_6 x_9_7 x_9_8 x_9_9) true))
(assert
 (and (distinct x_1_1 x_2_1 x_3_1 x_4_1 x_5_1 x_6_1 x_7_1 x_8_1 x_9_1) true))
(assert
 (and (distinct x_1_2 x_2_2 x_3_2 x_4_2 x_5_2 x_6_2 x_7_2 x_8_2 x_9_2) true))
(assert
 (and (distinct x_1_3 x_2_3 x_3_3 x_4_3 x_5_3 x_6_3 x_7_3 x_8_3 x_9_3) true))
(assert
 (and (distinct x_1_4 x_2_4 x_3_4 x_4_4 x_5_4 x_6_4 x_7_4 x_8_4 x_9_4) true))
(assert
 (and (distinct x_1_5 x_2_5 x_3_5 x_4_5 x_5_5 x_6_5 x_7_5 x_8_5 x_9_5) true))
(assert
 (and (distinct x_1_6 x_2_6 x_3_6 x_4_6 x_5_6 x_6_6 x_7_6 x_8_6 x_9_6) true))
(assert
 (and (distinct x_1_7 x_2_7 x_3_7 x_4_7 x_5_7 x_6_7 x_7_7 x_8_7 x_9_7) true))
(assert
 (and (distinct x_1_8 x_2_8 x_3_8 x_4_8 x_5_8 x_6_8 x_7_8 x_8_8 x_9_8) true))
(assert
 (and (distinct x_1_9 x_2_9 x_3_9 x_4_9 x_5_9 x_6_9 x_7_9 x_8_9 x_9_9) true))
(assert
 (and (distinct x_1_1 x_1_2 x_1_3 x_2_1 x_2_2 x_2_3 x_3_1 x_3_2 x_3_3) true))
(assert
 (and (distinct x_1_4 x_1_5 x_1_6 x_2_4 x_2_5 x_2_6 x_3_4 x_3_5 x_3_6) true))
(assert
 (and (distinct x_1_7 x_1_8 x_1_9 x_2_7 x_2_8 x_2_9 x_3_7 x_3_8 x_3_9) true))
(assert
 (and (distinct x_4_1 x_4_2 x_4_3 x_5_1 x_5_2 x_5_3 x_6_1 x_6_2 x_6_3) true))
(assert
 (and (distinct x_4_4 x_4_5 x_4_6 x_5_4 x_5_5 x_5_6 x_6_4 x_6_5 x_6_6) true))
(assert
 (and (distinct x_4_7 x_4_8 x_4_9 x_5_7 x_5_8 x_5_9 x_6_7 x_6_8 x_6_9) true))
(assert
 (and (distinct x_7_1 x_7_2 x_7_3 x_8_1 x_8_2 x_8_3 x_9_1 x_9_2 x_9_3) true))
(assert
 (and (distinct x_7_4 x_7_5 x_7_6 x_8_4 x_8_5 x_8_6 x_9_4 x_9_5 x_9_6) true))
(assert
 (and (distinct x_7_7 x_7_8 x_7_9 x_8_7 x_8_8 x_8_9 x_9_7 x_9_8 x_9_9) true))
(assert
 (ite true true (= x_1_1 0)))
(assert
 (ite true true (= x_1_2 0)))
(assert
 (ite true true (= x_1_3 0)))
(assert
 (ite true true (= x_1_4 0)))
(assert
 (ite true true (= x_1_5 0)))
(assert
 (ite false true (= x_1_6 3)))
(assert
 (ite true true (= x_1_7 0)))
(assert
 (ite false true (= x_1_8 1)))
(assert
 (ite false true (= x_1_9 7)))
(assert
 (ite true true (= x_2_1 0)))
(assert
 (ite false true (= x_2_2 1)))
(assert
 (ite false true (= x_2_3 5)))
(assert
 (ite true true (= x_2_4 0)))
(assert
 (ite true true (= x_2_5 0)))
(assert
 (ite false true (= x_2_6 9)))
(assert
 (ite true true (= x_2_7 0)))
(assert
 (ite true true (= x_2_8 0)))
(assert
 (ite false true (= x_2_9 8)))
(assert
 (ite true true (= x_3_1 0)))
(assert
 (ite false true (= x_3_2 6)))
(assert
 (ite true true (= x_3_3 0)))
(assert
 (ite true true (= x_3_4 0)))
(assert
 (ite true true (= x_3_5 0)))
(assert
 (ite true true (= x_3_6 0)))
(assert
 (ite true true (= x_3_7 0)))
(assert
 (ite true true (= x_3_8 0)))
(assert
 (ite true true (= x_3_9 0)))
(assert
 (ite false true (= x_4_1 1)))
(assert
 (ite true true (= x_4_2 0)))
(assert
 (ite true true (= x_4_3 0)))
(assert
 (ite true true (= x_4_4 0)))
(assert
 (ite true true (= x_4_5 0)))
(assert
 (ite false true (= x_4_6 7)))
(assert
 (ite true true (= x_4_7 0)))
(assert
 (ite true true (= x_4_8 0)))
(assert
 (ite true true (= x_4_9 0)))
(assert
 (ite true true (= x_5_1 0)))
(assert
 (ite true true (= x_5_2 0)))
(assert
 (ite false true (= x_5_3 9)))
(assert
 (ite true true (= x_5_4 0)))
(assert
 (ite true true (= x_5_5 0)))
(assert
 (ite true true (= x_5_6 0)))
(assert
 (ite false true (= x_5_7 2)))
(assert
 (ite true true (= x_5_8 0)))
(assert
 (ite true true (= x_5_9 0)))
(assert
 (ite true true (= x_6_1 0)))
(assert
 (ite true true (= x_6_2 0)))
(assert
 (ite true true (= x_6_3 0)))
(assert
 (ite false true (= x_6_4 5)))
(assert
 (ite true true (= x_6_5 0)))
(assert
 (ite true true (= x_6_6 0)))
(assert
 (ite true true (= x_6_7 0)))
(assert
 (ite true true (= x_6_8 0)))
(assert
 (ite false true (= x_6_9 4)))
(assert
 (ite true true (= x_7_1 0)))
(assert
 (ite true true (= x_7_2 0)))
(assert
 (ite true true (= x_7_3 0)))
(assert
 (ite true true (= x_7_4 0)))
(assert
 (ite true true (= x_7_5 0)))
(assert
 (ite true true (= x_7_6 0)))
(assert
 (ite true true (= x_7_7 0)))
(assert
 (ite false true (= x_7_8 2)))
(assert
 (ite true true (= x_7_9 0)))
(assert
 (ite false true (= x_8_1 5)))
(assert
 (ite true true (= x_8_2 0)))
(assert
 (ite true true (= x_8_3 0)))
(assert
 (ite false true (= x_8_4 6)))
(assert
 (ite true true (= x_8_5 0)))
(assert
 (ite true true (= x_8_6 0)))
(assert
 (ite false true (= x_8_7 3)))
(assert
 (ite false true (= x_8_8 4)))
(assert
 (ite true true (= x_8_9 0)))
(assert
 (ite false true (= x_9_1 3)))
(assert
 (ite false true (= x_9_2 4)))
(assert
 (ite true true (= x_9_3 0)))
(assert
 (ite false true (= x_9_4 2)))
(assert
 (ite true true (= x_9_5 0)))
(assert
 (ite true true (= x_9_6 0)))
(assert
 (ite true true (= x_9_7 0)))
(assert
 (ite true true (= x_9_8 0)))
(assert
 (ite true true (= x_9_9 0)))
(check-sat)
